words_hard_train/6316.qaiger
aag 90 16 0 1 74
2
4
12
16
20
24
26
30
38
44
52
84
100
116
126
146
180
6 2 5
8 3 4
10 7 9
14 5 13
18 17 13
22 21 13
28 25 27
32 31 3
34 28 32
36 22 34
40 36 39
42 18 40
46 42 45
48 15 47
50 11 49
54 52 12
56 51 55
58 14 46
60 56 59
62 49 59
64 10 63
66 26 45
68 27 44
70 67 69
72 45 13
74 73 43
76 75 47
78 70 77
80 65 79
82 71 76
86 84 17
88 85 16
90 87 89
92 19 41
94 93 43
96 91 94
98 83 97
102 100 39
104 101 38
106 103 105
108 39 13
110 109 37
112 111 41
114 106 113
118 117 24
120 116 26
122 120 25
124 119 123
128 126 31
130 127 30
132 129 131
134 29 33
136 135 35
138 133 136
140 124 139
142 132 137
144 141 143
148 146 21
150 147 20
152 149 151
154 23 35
156 155 37
158 152 157
160 144 159
162 153 156
164 161 163
166 107 112
168 164 167
170 115 169
172 90 95
174 170 173
176 98 175
178 80 177
180 60 179
i0 1 x2[6]
i1 2 y1[6]
i2 1 x2[7]
i3 2 y1[4]
i4 2 y1[2]
i5 2 y1[0]
i6 1 x2[5]
i7 2 y1[1]
i8 2 y1[3]
i9 2 y1[5]
i10 2 y1[7]
i11 1 x2[4]
i12 1 x2[3]
i13 1 x2[0]
i14 1 x2[1]
i15 1 x2[2]
o0 bv[0]
c
simplified
  >
    or
      >> 5
        1 x2
      2 y1
    xor
      1 x2
      2 y1
