words_hard_train/6316.qaiger.qdimacs
p cnf 90 223
a 1 6 73 42 13 50 58 63 0
e 2 3 4 5 7 8 9 10 11 12 14 15 16 17 18 19 20 21 22 23 24 25 26 27 28 29 30 31 32 33 34 35 36 37 38 39 40 41 43 44 45 46 47 48 49 51 52 53 54 55 56 57 59 60 61 62 64 65 66 67 68 69 70 71 72 74 75 76 77 78 79 80 81 82 83 84 85 86 87 88 89 90 0
-1 2 3 0
1 -3 0
-2 -3 0
1 -2 4 0
-1 -4 0
2 -4 0
3 4 5 0
-3 -5 0
-4 -5 0
2 6 7 0
-2 -7 0
-6 -7 0
8 6 9 0
-8 -9 0
-6 -9 0
10 6 11 0
-10 -11 0
-6 -11 0
12 13 14 0
-12 -14 0
-13 -14 0
15 1 16 0
-15 -16 0
-1 -16 0
-14 -16 17 0
14 -17 0
16 -17 0
-11 -17 18 0
11 -18 0
17 -18 0
-18 19 20 0
18 -20 0
-19 -20 0
-9 -20 21 0
9 -21 0
20 -21 0
-21 22 23 0
21 -23 0
-22 -23 0
7 23 24 0
-7 -24 0
-23 -24 0
5 24 25 0
-5 -25 0
-24 -25 0
-26 -6 27 0
26 -27 0
6 -27 0
25 27 28 0
-25 -28 0
-27 -28 0
-7 -23 29 0
7 -29 0
23 -29 0
-28 29 30 0
28 -30 0
-29 -30 0
24 29 31 0
-24 -31 0
-29 -31 0
-5 31 32 0
5 -32 0
-31 -32 0
-13 22 33 0
13 -33 0
-22 -33 0
13 -22 34 0
-13 -34 0
22 -34 0
33 34 35 0
-33 -35 0
-34 -35 0
22 6 36 0
-22 -36 0
-6 -36 0
36 21 37 0
-36 -37 0
-21 -37 0
37 23 38 0
-37 -38 0
-23 -38 0
-35 38 39 0
35 -39 0
-38 -39 0
32 39 40 0
-32 -40 0
-39 -40 0
35 -38 41 0
-35 -41 0
38 -41 0
-42 8 43 0
42 -43 0
-8 -43 0
42 -8 44 0
-42 -44 0
8 -44 0
43 44 45 0
-43 -45 0
-44 -45 0
9 20 46 0
-9 -46 0
-20 -46 0
46 21 47 0
-46 -47 0
-21 -47 0
45 -47 48 0
-45 -48 0
47 -48 0
41 48 49 0
-41 -49 0
-48 -49 0
-50 19 51 0
50 -51 0
-19 -51 0
50 -19 52 0
-50 -52 0
19 -52 0
51 52 53 0
-51 -53 0
-52 -53 0
19 6 54 0
-19 -54 0
-6 -54 0
54 18 55 0
-54 -55 0
-18 -55 0
55 20 56 0
-55 -56 0
-20 -56 0
-53 56 57 0
53 -57 0
-56 -57 0
58 -12 59 0
-58 -59 0
12 -59 0
-58 -13 60 0
58 -60 0
13 -60 0
-60 12 61 0
60 -61 0
-12 -61 0
59 61 62 0
-59 -62 0
-61 -62 0
-63 15 64 0
63 -64 0
-15 -64 0
63 -15 65 0
-63 -65 0
15 -65 0
64 65 66 0
-64 -66 0
-65 -66 0
14 16 67 0
-14 -67 0
-16 -67 0
67 17 68 0
-67 -68 0
-17 -68 0
66 -68 69 0
-66 -69 0
68 -69 0
-62 69 70 0
62 -70 0
-69 -70 0
-66 68 71 0
66 -71 0
-68 -71 0
70 71 72 0
-70 -72 0
-71 -72 0
-73 10 74 0
73 -74 0
-10 -74 0
73 -10 75 0
-73 -75 0
10 -75 0
74 75 76 0
-74 -76 0
-75 -76 0
11 17 77 0
-11 -77 0
-17 -77 0
77 18 78 0
-77 -78 0
-18 -78 0
-76 78 79 0
76 -79 0
-78 -79 0
-72 79 80 0
72 -80 0
-79 -80 0
76 -78 81 0
-76 -81 0
78 -81 0
80 81 82 0
-80 -82 0
-81 -82 0
53 -56 83 0
-53 -83 0
56 -83 0
-82 83 84 0
82 -84 0
-83 -84 0
57 84 85 0
-57 -85 0
-84 -85 0
-45 47 86 0
45 -86 0
-47 -86 0
-85 86 87 0
85 -87 0
-86 -87 0
-49 87 88 0
49 -88 0
-87 -88 0
-40 88 89 0
40 -89 0
-88 -89 0
-30 89 90 0
30 -90 0
-89 -90 0
90 0
